SDVRP instances/p11/p11_3070_tsplib0_splitx10_0.vrp
NAME:.\SDVRP_splitx10_
BEST_KNOWN: 0
COMMENT: 0
DIMENSION: 681
CAPACITY: 2000
EDGE_WEIGHT_FORMAT: FUNCTION
EDGE_WEIGHT_TYPE: EXACT_2D
NODE_COORD_SECTION
1 0.00000 0.00000
2 15 -44
3 15 -44
4 15 -44
5 15 -44
6 15 -44
7 15 -44
8 15 -44
9 15 -42
10 15 -42
11 15 -42
12 15 -42
13 21 -40
14 21 -40
15 21 -40
16 21 -40
17 21 -40
18 21 -40
19 21 -40
20 22 -40
21 22 -40
22 22 -40
23 22 -40
24 22 -40
25 21 -38
26 21 -38
27 21 -38
28 21 -38
29 21 -38
30 22 -36
31 22 -36
32 22 -36
33 22 -36
34 22 -36
35 22 -36
36 22 -36
37 24 -36
38 24 -36
39 24 -36
40 24 -36
41 24 -36
42 24 -36
43 24 -36
44 24 -36
45 36 -36
46 36 -36
47 36 -36
48 36 -36
49 36 -36
50 36 -36
51 25 -38
52 25 -38
53 25 -38
54 25 -38
55 25 -38
56 25 -38
57 24 -39
58 24 -39
59 24 -39
60 25 -40
61 25 -40
62 25 -40
63 25 -40
64 25 -40
65 37 -39
66 37 -39
67 37 -39
68 37 -39
69 30 -40
70 30 -40
71 30 -40
72 30 -40
73 30 -40
74 30 -40
75 30 -40
76 29 -42
77 29 -42
78 29 -42
79 29 -42
80 26 -42
81 26 -42
82 26 -42
83 26 -42
84 26 -42
85 26 -42
86 26 -42
87 63 -39
88 63 -39
89 63 -39
90 63 -39
91 63 -37
92 63 -37
93 63 -37
94 63 -37
95 63 -37
96 14 -9
97 14 -9
98 14 -9
99 66 -39
100 66 -39
101 66 -39
102 66 -39
103 66 -39
104 66 -39
105 66 -39
106 66 -35
107 66 -35
108 66 -35
109 66 -35
110 66 -35
111 66 -32
112 66 -32
113 66 -32
114 66 -32
115 66 -32
116 66 -32
117 68 -42
118 68 -42
119 68 -42
120 68 -42
121 68 -36
122 68 -36
123 68 -36
124 68 -36
125 68 -36
126 69 -42
127 69 -42
128 69 -42
129 69 -42
130 69 -42
131 69 -42
132 69 -40
133 69 -40
134 69 -40
135 69 -40
136 69 -40
137 69 -34
138 69 -34
139 69 -34
140 69 -34
141 69 -34
142 69 -34
143 69 -34
144 69 -34
145 72 -42
146 72 -42
147 72 -42
148 72 -38
149 72 -38
150 72 -38
151 72 -38
152 80 -30
153 80 -30
154 80 -30
155 80 -30
156 74 -42
157 74 -42
158 74 -42
159 74 -42
160 74 -42
161 74 -42
162 74 -40
163 74 -40
164 74 -40
165 74 -40
166 74 -40
167 74 -40
168 74 -40
169 74 -36
170 74 -36
171 74 -36
172 74 -36
173 74 -36
174 75 -44
175 75 -44
176 75 -44
177 75 -44
178 75 -44
179 75 -44
180 77 -40
181 77 -40
182 77 -40
183 77 -40
184 77 -40
185 77 -40
186 77 -40
187 75 -37
188 75 -37
189 75 -37
190 75 -37
191 75 -37
192 75 -37
193 75 -37
194 77 -38
195 77 -38
196 77 -38
197 77 -38
198 77 -38
199 77 -38
200 77 -38
201 76 -4
202 76 -4
203 76 -4
204 76 -4
205 76 -1
206 76 -1
207 76 -1
208 76 -1
209 76 -1
210 76 -1
211 76 -1
212 76 1
213 76 1
214 76 1
215 76 1
216 76 1
217 76 1
218 76 1
219 75 10
220 75 10
221 75 10
222 75 10
223 75 10
224 75 10
225 79 -2
226 79 -2
227 79 -2
228 79 -2
229 79 -2
230 79 -2
231 79 1
232 79 1
233 79 1
234 79 1
235 79 1
236 79 7
237 79 7
238 79 7
239 79 7
240 82 -3
241 82 -3
242 82 -3
243 82 -3
244 82 -3
245 82 -3
246 82 7
247 82 7
248 82 7
249 82 7
250 84 -3
251 84 -3
252 84 -3
253 84 -1
254 84 -1
255 84 -1
256 84 -1
257 84 -1
258 84 -1
259 84 -1
260 84 -1
261 84 3
262 84 3
263 84 3
264 84 3
265 84 3
266 86 -3
267 86 -3
268 86 -3
269 86 -3
270 86 -3
271 86 -3
272 86 -3
273 89 1
274 89 1
275 89 1
276 89 1
277 89 1
278 89 1
279 89 1
280 89 1
281 89 5
282 89 5
283 89 5
284 89 5
285 89 5
286 89 5
287 73 35
288 73 35
289 73 35
290 73 35
291 73 35
292 73 38
293 73 38
294 73 38
295 73 38
296 73 38
297 75 36
298 75 36
299 75 36
300 75 36
301 75 36
302 75 36
303 75 40
304 75 40
305 75 40
306 75 40
307 75 40
308 75 40
309 75 40
310 75 40
311 75 40
312 75 44
313 75 44
314 75 44
315 75 44
316 75 44
317 75 44
318 75 44
319 75 44
320 77 35
321 77 35
322 77 35
323 77 35
324 77 41
325 77 41
326 77 41
327 77 41
328 77 41
329 77 41
330 77 41
331 80 32
332 80 32
333 80 32
334 80 32
335 80 43
336 80 43
337 80 43
338 80 43
339 80 43
340 80 43
341 83 37
342 83 37
343 83 37
344 83 37
345 83 39
346 83 39
347 83 39
348 83 44
349 83 44
350 83 44
351 83 44
352 83 44
353 84 41
354 84 41
355 84 41
356 84 41
357 85 35
358 85 35
359 85 35
360 85 35
361 85 35
362 85 35
363 89 44
364 89 44
365 89 44
366 89 44
367 89 44
368 89 44
369 89 44
370 27 38
371 27 38
372 27 38
373 27 38
374 27 38
375 27 38
376 27 38
377 40 35
378 40 35
379 40 35
380 40 35
381 40 35
382 40 35
383 25 40
384 25 40
385 25 40
386 25 40
387 25 40
388 25 40
389 25 40
390 25 40
391 25 42
392 25 42
393 25 42
394 25 42
395 25 42
396 25 42
397 25 42
398 25 42
399 34 41
400 34 41
401 34 41
402 34 41
403 34 41
404 34 41
405 34 41
406 36 44
407 36 44
408 36 44
409 36 44
410 36 44
411 36 38
412 36 38
413 36 38
414 36 38
415 36 38
416 36 38
417 36 38
418 36 42
419 36 42
420 36 42
421 36 42
422 36 42
423 36 42
424 36 42
425 36 42
426 36 42
427 36 44
428 36 44
429 36 44
430 36 44
431 38 38
432 38 38
433 38 38
434 38 38
435 38 38
436 40 40
437 40 40
438 40 40
439 40 40
440 40 40
441 40 40
442 40 43
443 40 43
444 40 43
445 40 43
446 40 43
447 40 43
448 40 43
449 40 43
450 44 41
451 44 41
452 44 41
453 44 41
454 44 41
455 44 41
456 44 45
457 44 45
458 44 45
459 44 45
460 44 45
461 0 -10
462 0 -10
463 0 -10
464 0 -10
465 0 -10
466 0 -5
467 0 -5
468 0 -5
469 8 -15
470 8 -15
471 8 -15
472 8 -15
473 8 -15
474 8 -15
475 7 -10
476 7 -10
477 7 -10
478 7 -10
479 7 -10
480 6 -7
481 6 -7
482 6 -7
483 6 -7
484 6 -7
485 6 -7
486 6 -7
487 6 -7
488 4 -5
489 4 -5
490 4 -5
491 4 -5
492 5 -3
493 5 -3
494 5 -3
495 5 -3
496 5 -3
497 5 -3
498 5 -3
499 5 -3
500 1 -3
501 1 -3
502 1 -3
503 1 -3
504 1 -3
505 8 -5
506 8 -5
507 8 -5
508 8 -5
509 8 -5
510 8 -5
511 8 -5
512 11 -6
513 11 -6
514 11 -6
515 11 -6
516 11 -6
517 11 -6
518 11 -6
519 10 -5
520 10 -5
521 10 -5
522 10 -5
523 10 -5
524 10 -5
525 8 -4
526 8 -4
527 8 -4
528 8 -4
529 8 -4
530 8 -4
531 10 -1
532 10 -1
533 10 -1
534 10 -1
535 10 -1
536 12 -1
537 12 -1
538 12 -1
539 12 -1
540 12 -1
541 12 -1
542 12 -1
543 6 0
544 6 0
545 6 0
546 6 0
547 6 0
548 6 0
549 10 0
550 10 0
551 10 0
552 10 0
553 10 0
554 15 0
555 15 0
556 15 0
557 15 0
558 20 10
559 20 10
560 20 10
561 20 10
562 20 10
563 10 5
564 10 5
565 10 5
566 10 5
567 12 6
568 12 6
569 12 6
570 12 6
571 12 6
572 12 6
573 8 4
574 8 4
575 8 4
576 8 4
577 8 4
578 8 4
579 6 3
580 6 3
581 6 3
582 6 3
583 6 3
584 10 10
585 10 10
586 10 10
587 8 8
588 8 8
589 8 8
590 8 8
591 8 8
592 8 8
593 8 8
594 4 5
595 4 5
596 4 5
597 4 5
598 4 5
599 4 5
600 5 6
601 5 6
602 5 6
603 5 6
604 5 6
605 5 6
606 5 6
607 6 9
608 6 9
609 6 9
610 6 9
611 6 9
612 6 9
613 18 -12
614 18 -12
615 18 -12
616 18 -12
617 18 -12
618 23 -7
619 23 -7
620 23 -7
621 23 -7
622 23 -7
623 20 5
624 20 5
625 20 5
626 20 5
627 20 5
628 20 5
629 3 -5
630 3 -5
631 3 -5
632 3 -5
633 3 -5
634 3 -5
635 5 -9
636 5 -9
637 5 -9
638 5 -9
639 5 -9
640 5 -9
641 8 -14
642 8 -14
643 8 -14
644 15 -8
645 15 -8
646 15 -8
647 15 -8
648 20 1
649 20 1
650 20 1
651 20 1
652 20 1
653 20 1
654 20 1
655 15 7
656 15 7
657 15 7
658 15 7
659 6 -12
660 6 -12
661 6 -12
662 6 -12
663 6 -12
664 6 -12
665 6 -12
666 15 -10
667 15 -10
668 15 -10
669 15 -10
670 15 -10
671 15 -10
672 -5 -5
673 -5 -5
674 -5 -5
675 -5 -5
676 -5 5
677 -5 5
678 -5 5
679 -5 5
680 -5 5
681 -5 5
DEMAND_SECTION
1 0
2 400
3 400
4 400
5 20
6 20
7 20
8 20
9 400
10 400
11 100
12 10
13 400
14 200
15 100
16 20
17 20
18 20
19 20
20 400
21 400
22 200
23 20
24 20
25 400
26 400
27 400
28 100
29 20
30 400
31 400
32 400
33 20
34 20
35 20
36 20
37 400
38 400
39 100
40 20
41 20
42 20
43 20
44 10
45 400
46 200
47 20
48 20
49 20
50 20
51 400
52 200
53 100
54 20
55 20
56 20
57 400
58 200
59 20
60 400
61 400
62 400
63 20
64 20
65 400
66 400
67 100
68 10
69 400
70 400
71 100
72 20
73 20
74 20
75 10
76 400
77 400
78 200
79 10
80 400
81 400
82 200
83 100
84 20
85 20
86 20
87 400
88 400
89 20
90 10
91 400
92 200
93 20
94 20
95 20
96 400
97 400
98 200
99 400
100 400
101 400
102 20
103 20
104 20
105 20
106 400
107 400
108 200
109 20
110 10
111 400
112 200
113 20
114 20
115 20
116 20
117 400
118 400
119 200
120 100
121 400
122 400
123 200
124 100
125 20
126 400
127 400
128 200
129 20
130 20
131 20
132 400
133 400
134 400
135 20
136 10
137 400
138 400
139 200
140 100
141 20
142 20
143 20
144 20
145 400
146 200
147 20
148 400
149 400
150 400
151 20
152 400
153 200
154 100
155 20
156 400
157 200
158 20
159 20
160 20
161 20
162 400
163 400
164 400
165 20
166 20
167 20
168 20
169 400
170 400
171 400
172 20
173 20
174 400
175 400
176 400
177 20
178 20
179 20
180 400
181 200
182 100
183 20
184 20
185 20
186 10
187 400
188 400
189 400
190 20
191 20
192 20
193 10
194 400
195 400
196 100
197 20
198 20
199 20
200 20
201 400
202 400
203 400
204 20
205 400
206 400
207 100
208 20
209 20
210 20
211 20
212 400
213 400
214 100
215 20
216 20
217 20
218 20
219 400
220 400
221 400
222 20
223 20
224 20
225 400
226 200
227 100
228 20
229 20
230 10
231 400
232 200
233 20
234 20
235 10
236 400
237 400
238 200
239 100
240 400
241 400
242 200
243 100
244 20
245 10
246 400
247 400
248 400
249 100
250 400
251 400
252 20
253 400
254 400
255 100
256 20
257 20
258 20
259 20
260 10
261 400
262 400
263 100
264 20
265 20
266 400
267 400
268 400
269 20
270 20
271 20
272 10
273 400
274 400
275 200
276 20
277 20
278 20
279 20
280 10
281 400
282 400
283 200
284 100
285 20
286 10
287 400
288 400
289 200
290 100
291 20
292 400
293 200
294 20
295 20
296 20
297 400
298 400
299 400
300 100
301 20
302 10
303 400
304 400
305 200
306 100
307 20
308 20
309 20
310 20
311 10
312 400
313 400
314 200
315 100
316 20
317 20
318 20
319 20
320 400
321 400
322 20
323 20
324 400
325 400
326 200
327 100
328 20
329 20
330 20
331 400
332 400
333 100
334 20
335 400
336 400
337 20
338 20
339 20
340 10
341 400
342 400
343 400
344 100
345 400
346 400
347 10
348 400
349 400
350 20
351 20
352 10
353 400
354 400
355 20
356 10
357 400
358 400
359 20
360 20
361 20
362 20
363 400
364 400
365 100
366 20
367 20
368 20
369 20
370 400
371 400
372 400
373 20
374 20
375 20
376 20
377 400
378 200
379 20
380 20
381 20
382 10
383 400
384 400
385 400
386 100
387 20
388 20
389 20
390 20
391 400
392 400
393 400
394 20
395 20
396 20
397 20
398 10
399 400
400 400
401 400
402 100
403 20
404 20
405 10
406 400
407 400
408 400
409 100
410 10
411 400
412 400
413 400
414 20
415 20
416 20
417 10
418 400
419 400
420 400
421 100
422 20
423 20
424 20
425 20
426 10
427 400
428 200
429 20
430 20
431 400
432 400
433 20
434 20
435 20
436 400
437 400
438 200
439 20
440 20
441 20
442 400
443 400
444 200
445 100
446 20
447 20
448 20
449 10
450 400
451 400
452 200
453 20
454 20
455 10
456 400
457 400
458 400
459 20
460 20
461 400
462 400
463 200
464 100
465 20
466 400
467 400
468 20
469 400
470 400
471 200
472 100
473 20
474 20
475 400
476 400
477 200
478 100
479 10
480 400
481 400
482 400
483 100
484 20
485 20
486 20
487 20
488 400
489 400
490 400
491 20
492 400
493 400
494 400
495 100
496 20
497 20
498 20
499 20
500 400
501 400
502 400
503 20
504 20
505 400
506 400
507 400
508 20
509 20
510 20
511 20
512 400
513 200
514 20
515 20
516 20
517 20
518 10
519 400
520 400
521 400
522 20
523 20
524 10
525 400
526 400
527 200
528 20
529 20
530 20
531 400
532 200
533 100
534 20
535 20
536 400
537 400
538 400
539 100
540 20
541 20
542 10
543 400
544 400
545 200
546 100
547 20
548 20
549 400
550 400
551 400
552 20
553 10
554 400
555 400
556 400
557 10
558 400
559 400
560 100
561 20
562 20
563 400
564 400
565 400
566 10
567 400
568 200
569 20
570 20
571 20
572 20
573 400
574 400
575 200
576 100
577 20
578 10
579 400
580 400
581 400
582 20
583 10
584 400
585 400
586 400
587 400
588 400
589 400
590 100
591 20
592 20
593 20
594 400
595 400
596 100
597 20
598 20
599 10
600 400
601 200
602 100
603 20
604 20
605 20
606 10
607 400
608 200
609 20
610 20
611 20
612 10
613 400
614 400
615 200
616 20
617 20
618 400
619 400
620 20
621 20
622 10
623 400
624 400
625 400
626 100
627 20
628 10
629 400
630 400
631 400
632 100
633 20
634 10
635 400
636 400
637 200
638 100
639 20
640 10
641 400
642 200
643 10
644 400
645 400
646 20
647 20
648 400
649 400
650 200
651 100
652 20
653 20
654 10
655 400
656 400
657 100
658 10
659 400
660 400
661 20
662 20
663 20
664 20
665 10
666 400
667 400
668 400
669 20
670 20
671 20
672 400
673 400
674 400
675 10
676 400
677 400
678 400
679 100
680 20
681 20
DEPOT_SECTION
1
-1
EOF