SDVRP instances/p11/p11_3070_tsplib0_splitx10_0.sol
680 -2 1 3 6 4 7 5 9 642 641 477 -10 11 8 13 18 17 16 63 60 61 59 -19 23 21 22 20 32 31 29 33 35 -28 26 27 24 25 15 12 14 662 502 503 -34 30 54 53 51 50 52 55 37 40 36 -41 42 43 38 39 62 83 81 85 80 79 84 82 56 57 58 -47 44 46 45 48 49 66 64 65 67 90 -71 73 70 69 74 72 68 76 78 77 75 -86 87 99 100 98 -88 89 117 119 129 128 144 145 135 132 133 134 -91 131 126 125 116 118 -93 94 92 146 156 160 155 157 161 167 163 165 166 162 164 -102 103 101 104 127 130 173 178 175 176 177 174 158 159 147 -108 109 107 105 106 123 121 120 124 -114 111 112 113 115 110 141 139 136 138 137 122 -140 142 143 168 171 172 187 192 190 188 182 180 179 -149 150 148 184 183 181 185 193 198 195 197 194 196 199 -151 154 152 153 186 189 191 169 170 -201 203 200 202 224 225 226 -205 209 204 208 206 233 234 232 230 231 211 -210 207 255 258 257 259 256 252 254 253 264 263 262 261 260 -217 214 213 216 215 212 219 218 220 221 223 222 -227 229 228 269 265 268 267 271 270 266 279 276 277 272 274 -236 235 237 238 247 248 246 -241 242 239 244 240 243 249 250 251 -245 280 284 283 281 282 285 275 273 278 -286 290 288 300 296 299 301 319 322 321 320 -289 287 297 298 294 292 295 560 557 -293 291 317 318 312 311 313 314 315 316 449 -302 305 310 303 324 327 323 325 328 329 -308 306 309 304 307 336 337 335 334 339 338 347 352 354 -326 350 351 348 349 365 368 362 366 367 364 363 353 355 -330 331 340 342 341 -332 333 358 356 361 357 360 359 343 344 346 345 -370 371 369 382 383 -375 372 373 374 401 402 404 398 422 420 423 417 419 418 421 -379 381 378 376 377 380 411 412 410 -388 389 385 386 387 384 396 397 393 390 391 392 395 394 -399 400 403 448 442 443 441 445 444 446 447 -414 413 416 415 440 437 439 435 438 436 430 431 432 434 433 -425 424 406 407 427 405 426 409 408 429 428 -452 450 451 453 454 457 459 458 456 455 -463 460 462 461 464 466 465 467 -471 473 468 472 469 470 640 475 478 -474 476 480 479 481 482 483 486 484 485 490 -488 489 487 630 629 -492 491 543 578 580 -493 506 504 505 524 -497 496 495 498 494 97 95 96 667 666 670 -501 500 499 631 628 633 632 -510 509 508 507 614 613 612 615 616 620 621 617 618 619 -512 513 514 517 516 511 515 643 646 645 644 665 668 669 -519 523 518 520 522 521 529 527 526 528 525 -531 530 551 552 549 548 550 545 -534 532 533 555 556 554 553 577 574 573 -539 537 540 538 536 535 541 542 544 546 547 -565 564 563 562 569 567 571 566 601 604 605 603 -570 568 655 656 657 654 558 559 561 625 627 626 623 -581 579 582 576 572 575 594 593 596 598 595 597 -584 583 585 606 609 611 608 610 607 -591 592 589 588 590 586 587 602 599 600 -622 624 648 647 653 651 652 649 650 -638 634 637 639 635 636 663 659 664 658 661 660 -672 673 671 674 -678 677 675 680 676 679 0 





OBJ=
6796.528
BEST_KNOWN=
0.000